&GLOBAL
  EXTENDED_FFT_LENGTHS TRUE
  PRINT_LEVEL LOW
  PROJECT_NAME 3
  RUN_TYPE ENERGY
&END GLOBAL
&FORCE_EVAL
  METHOD QUICKSTEP
  &DFT
    POTENTIAL_FILE_NAME POTENTIAL
    UKS FALSE
    MULTIPLICITY 1
    CHARGE 0
    BASIS_SET_FILE_NAME BASIS_CC_AUG_RI_NEW
    &SCF
      MAX_SCF 1000
      EPS_SCF 1e-10
      SCF_GUESS RESTART
      &OT
        MINIMIZER DIIS
        STEPSIZE 0.04
        PRECONDITIONER FULL_ALL
        ENERGY_GAP 0.001
      &END OT
    &END SCF
    &QS
      EPS_DEFAULT 1e-10
      EPS_PGF_ORB 1e-05
      METHOD GAPW
    &END QS
    &MGRID
      NGRIDS 5
      CUTOFF 500
      REL_CUTOFF 50
    &END MGRID
    &XC
      &XC_FUNCTIONAL PBE
      &END XC_FUNCTIONAL
    &END XC
    &POISSON
      POISSON_SOLVER MT
      PERIODIC NONE
    &END POISSON
  &END DFT
  &SUBSYS
    &CELL
      ABC 11.4360671  11.34619999 10.8381064
      PERIODIC NONE
    &END CELL
    &TOPOLOGY
      COORD_FILE_NAME dsgdb9nsd_000002.xyz
      COORD_FILE_FORMAT xyz
      &CENTER_COORDINATES 
      &END CENTER_COORDINATES
    &END TOPOLOGY
    &KIND H
      RI_AUX_BASIS_SET aug-cc-pVTZ-RIFIT
      ELEMENT H
      POTENTIAL ALL
      BASIS_SET aug-cc-pVTZ
    &END KIND
    &KIND C
      RI_AUX_BASIS_SET aug-cc-pVTZ-RIFIT
      ELEMENT C
      POTENTIAL ALL
      BASIS_SET aug-cc-pVTZ
    &END KIND
    &KIND N
      RI_AUX_BASIS_SET aug-cc-pVTZ-RIFIT
      ELEMENT N
      POTENTIAL ALL
      BASIS_SET aug-cc-pVTZ
    &END KIND
    &KIND O
      RI_AUX_BASIS_SET aug-cc-pVTZ-RIFIT
      ELEMENT O
      POTENTIAL ALL
      BASIS_SET aug-cc-pVTZ
    &END KIND
    &KIND F
      RI_AUX_BASIS_SET aug-cc-pVTZ-RIFIT
      ELEMENT F
      POTENTIAL ALL
      BASIS_SET aug-cc-pVTZ
    &END KIND
    &KIND P
      RI_AUX_BASIS_SET aug-cc-pVTZ-RIFIT
      ELEMENT P
      POTENTIAL ALL
      BASIS_SET aug-cc-pVTZ
    &END KIND
    &KIND S
      RI_AUX_BASIS_SET aug-cc-pVTZ-RIFIT
      ELEMENT S
      POTENTIAL ALL
      BASIS_SET aug-cc-pVTZ
    &END KIND
    &KIND Cl
      RI_AUX_BASIS_SET aug-cc-pVTZ-RIFIT
      ELEMENT Cl
      POTENTIAL ALL
      BASIS_SET aug-cc-pVTZ
    &END KIND
    &KIND Br
      RI_AUX_BASIS_SET aug-cc-pVTZ-RIFIT
      ELEMENT Br
      POTENTIAL ALL
      BASIS_SET aug-cc-pVTZ
    &END KIND
    &KIND B
      RI_AUX_BASIS_SET aug-cc-pVTZ-RIFIT
      ELEMENT B
      POTENTIAL ALL
      BASIS_SET aug-cc-pVTZ
    &END KIND
    &KIND I
      RI_AUX_BASIS_SET aug-cc-pVTZ-RIFIT
      ELEMENT I
      POTENTIAL ALL
      BASIS_SET aug-cc-pVTZ
    &END KIND
  &END SUBSYS
&END FORCE_EVAL
